; Options: -in -smt2
(set-option :produce-unsat-assumptions true)

(declare-fun start!973 () Bool)

(assert start!973)

(declare-fun b!4529 () Bool)

(declare-fun e!2268 () Bool)

(declare-fun e!2265 () Bool)

(assert (=> b!4529 (= e!2268 e!2265)))

(declare-fun res!3501 () Bool)

(assert (=> b!4529 (=> (not res!3501) (not e!2265))))

(declare-fun lt!2891 () (_ BitVec 32))

(declare-fun jz!53 () (_ BitVec 32))

(assert (=> b!4529 (= res!3501 (bvslt lt!2891 (bvsub jz!53 #b00000000000000000000000000000001)))))

(declare-fun i!252 () (_ BitVec 32))

(assert (=> b!4529 (= lt!2891 (bvadd i!252 #b00000000000000000000000000000001))))

(declare-fun b!4530 () Bool)

(declare-fun e!2263 () Bool)

(assert (=> b!4530 (= e!2263 e!2268)))

(declare-fun res!3498 () Bool)

(assert (=> b!4530 (=> (not res!3498) (not e!2268))))

(declare-fun lt!2894 () (_ BitVec 32))

(declare-fun QInt!0 ((_ BitVec 32)) Bool)

(assert (=> b!4530 (= res!3498 (QInt!0 lt!2894))))

(declare-datatypes ((array!300 0))(
  ( (array!301 (arr!131 (Array (_ BitVec 32) (_ BitVec 32))) (size!131 (_ BitVec 32))) )
))
(declare-fun iq!165 () array!300)

(assert (=> b!4530 (= lt!2894 (select (arr!131 iq!165) i!252))))

(declare-datatypes ((Unit!360 0))(
  ( (Unit!361) )
))
(declare-datatypes ((tuple4!178 0))(
  ( (tuple4!179 (_1!144 Unit!360) (_2!144 array!300) (_3!132 (_ BitVec 32)) (_4!89 (_ FloatingPoint 11 53))) )
))
(declare-fun e!2267 () tuple4!178)

(declare-fun lt!2896 () (_ FloatingPoint 11 53))

(declare-fun lt!2892 () array!300)

(declare-fun b!4531 () Bool)

(declare-fun Unit!362 () Unit!360)

(assert (=> b!4531 (= e!2267 (tuple4!179 Unit!362 lt!2892 jz!53 lt!2896))))

(declare-fun b!4532 () Bool)

(declare-fun e!2269 () Bool)

(assert (=> b!4532 (= e!2265 e!2269)))

(declare-fun res!3502 () Bool)

(assert (=> b!4532 (=> res!3502 e!2269)))

(declare-datatypes ((tuple4!180 0))(
  ( (tuple4!181 (_1!145 Unit!360) (_2!145 (_ BitVec 32)) (_3!133 array!300) (_4!90 (_ BitVec 32))) )
))
(declare-fun lt!2897 () tuple4!180)

(assert (=> b!4532 (= res!3502 (or (bvsgt #b00000000000000000000000000000000 (_2!145 lt!2897)) (bvsgt (_2!145 lt!2897) (bvsub jz!53 #b00000000000000000000000000000001))))))

(declare-fun carry!58 () (_ BitVec 32))

(declare-datatypes ((array!302 0))(
  ( (array!303 (arr!132 (Array (_ BitVec 32) (_ FloatingPoint 11 53))) (size!132 (_ BitVec 32))) )
))
(declare-fun q!85 () array!302)

(declare-fun computeModuloWhile!1 ((_ BitVec 32) array!302 (_ BitVec 32) array!300 (_ BitVec 32)) tuple4!180)

(assert (=> b!4532 (= lt!2897 (computeModuloWhile!1 jz!53 q!85 lt!2891 (array!301 (store (arr!131 iq!165) i!252 (ite (= carry!58 #b00000000000000000000000000000000) (ite (not (= lt!2894 #b00000000000000000000000000000000)) (bvsub #b00000001000000000000000000000000 lt!2894) #b00000000000000000000000000000000) (bvsub #b00000000111111111111111111111111 lt!2894))) (size!131 iq!165)) (ite (and (= carry!58 #b00000000000000000000000000000000) (not (= lt!2894 #b00000000000000000000000000000000))) #b00000000000000000000000000000001 carry!58)))))

(declare-fun b!4533 () Bool)

(declare-fun e!2270 () Bool)

(assert (=> b!4533 (= e!2270 e!2263)))

(declare-fun res!3506 () Bool)

(assert (=> b!4533 (=> (not res!3506) (not e!2263))))

(declare-fun lt!2895 () tuple4!178)

(declare-fun lt!2893 () (_ FloatingPoint 11 53))

(assert (=> b!4533 (= res!3506 (and (fp.leq (fp #b0 #b00000000000 #b0000000000000000000000000000000000000000000000000000) lt!2893) (fp.lt lt!2893 (fp #b0 #b10000000010 #b0000000000000000000000000000000000000000000000000000)) (bvsge (select (arr!131 (_2!144 lt!2895)) (bvsub jz!53 #b00000000000000000000000000000001)) #b00000000100000000000000000000000) (bvsle #b00000000000000000000000000000000 i!252) (bvsle i!252 (bvsub jz!53 #b00000000000000000000000000000001))))))

(assert (=> b!4533 (= lt!2893 (fp.sub roundNearestTiesToEven (_4!89 lt!2895) (fp.mul roundNearestTiesToEven (fp #b0 #b10000000010 #b0000000000000000000000000000000000000000000000000000) ((_ to_fp 11 53) roundNearestTiesToEven (ite (fp.isNaN (fp.mul roundNearestTiesToEven (_4!89 lt!2895) (fp #b0 #b01111111100 #b0000000000000000000000000000000000000000000000000000))) #b0000000000000000000000000000000000000000000000000000000000000000 (ite (fp.gt (fp.mul roundNearestTiesToEven (_4!89 lt!2895) (fp #b0 #b01111111100 #b0000000000000000000000000000000000000000000000000000)) ((_ to_fp 11 53) roundTowardZero #b0111111111111111111111111111111111111111111111111111111111111111)) #b0111111111111111111111111111111111111111111111111111111111111111 (ite (fp.lt (fp.mul roundNearestTiesToEven (_4!89 lt!2895) (fp #b0 #b01111111100 #b0000000000000000000000000000000000000000000000000000)) ((_ to_fp 11 53) roundTowardZero #b1000000000000000000000000000000000000000000000000000000000000000)) #b1000000000000000000000000000000000000000000000000000000000000000 ((_ fp.to_sbv 64) roundTowardZero (fp.mul roundNearestTiesToEven (_4!89 lt!2895) (fp #b0 #b01111111100 #b0000000000000000000000000000000000000000000000000000))))))))))))

(assert (=> b!4533 (= lt!2895 e!2267)))

(declare-fun c!722 () Bool)

(assert (=> b!4533 (= c!722 (bvsgt jz!53 #b00000000000000000000000000000000))))

(assert (=> b!4533 (= lt!2896 (select (arr!132 q!85) jz!53))))

(assert (=> b!4533 (= lt!2892 (array!301 ((as const (Array (_ BitVec 32) (_ BitVec 32))) #b00000000000000000000000000000000) #b00000000000000000000000000010100))))

(declare-fun res!3504 () Bool)

(assert (=> start!973 (=> (not res!3504) (not e!2270))))

(assert (=> start!973 (= res!3504 (and (bvsle #b00000000000000000000000000000010 jz!53) (bvslt jz!53 #b00000000000000000000000000010011)))))

(assert (=> start!973 e!2270))

(assert (=> start!973 true))

(declare-fun array_inv!81 (array!300) Bool)

(assert (=> start!973 (array_inv!81 iq!165)))

(declare-fun array_inv!82 (array!302) Bool)

(assert (=> start!973 (array_inv!82 q!85)))

(declare-fun b!4534 () Bool)

(declare-fun res!3500 () Bool)

(assert (=> b!4534 (=> (not res!3500) (not e!2270))))

(declare-fun qInv!0 (array!302) Bool)

(assert (=> b!4534 (= res!3500 (qInv!0 q!85))))

(declare-fun b!4535 () Bool)

(declare-fun res!3503 () Bool)

(assert (=> b!4535 (=> res!3503 e!2269)))

(declare-fun iqInv!0 (array!300) Bool)

(assert (=> b!4535 (= res!3503 (not (iqInv!0 (_3!133 lt!2897))))))

(declare-fun b!4536 () Bool)

(declare-fun res!3505 () Bool)

(assert (=> b!4536 (=> (not res!3505) (not e!2263))))

(assert (=> b!4536 (= res!3505 (and (bvsge (select (arr!131 iq!165) (bvsub jz!53 #b00000000000000000000000000000001)) #b00000000100000000000000000000000) (or (= carry!58 #b00000000000000000000000000000000) (= carry!58 #b00000000000000000000000000000001)) (bvslt i!252 (bvsub jz!53 #b00000000000000000000000000000001))))))

(declare-fun b!4537 () Bool)

(declare-fun res!3499 () Bool)

(assert (=> b!4537 (=> (not res!3499) (not e!2263))))

(assert (=> b!4537 (= res!3499 (iqInv!0 iq!165))))

(declare-fun b!4538 () Bool)

(assert (=> b!4538 (= e!2269 (or (bvslt (select (arr!131 (_3!133 lt!2897)) (bvsub jz!53 #b00000000000000000000000000000001)) #b00000000100000000000000000000000) (and (not (= (_4!90 lt!2897) #b00000000000000000000000000000000)) (not (= (_4!90 lt!2897) #b00000000000000000000000000000001)))))))

(declare-fun b!4539 () Bool)

(declare-fun computeModuloWhile!0 ((_ BitVec 32) array!302 array!300 (_ BitVec 32) (_ FloatingPoint 11 53)) tuple4!178)

(assert (=> b!4539 (= e!2267 (computeModuloWhile!0 jz!53 q!85 lt!2892 jz!53 lt!2896))))

(assert (= (and start!973 res!3504) b!4534))

(assert (= (and b!4534 res!3500) b!4533))

(assert (= (and b!4533 c!722) b!4539))

(assert (= (and b!4533 (not c!722)) b!4531))

(assert (= (and b!4533 res!3506) b!4537))

(assert (= (and b!4537 res!3499) b!4536))

(assert (= (and b!4536 res!3505) b!4530))

(assert (= (and b!4530 res!3498) b!4529))

(assert (= (and b!4529 res!3501) b!4532))

(assert (= (and b!4532 (not res!3502)) b!4535))

(assert (= (and b!4535 (not res!3503)) b!4538))

(declare-fun m!6563 () Bool)

(assert (=> b!4537 m!6563))

(declare-fun m!6565 () Bool)

(assert (=> b!4539 m!6565))

(declare-fun m!6567 () Bool)

(assert (=> start!973 m!6567))

(declare-fun m!6569 () Bool)

(assert (=> start!973 m!6569))

(declare-fun m!6571 () Bool)

(assert (=> b!4532 m!6571))

(declare-fun m!6573 () Bool)

(assert (=> b!4532 m!6573))

(declare-fun m!6575 () Bool)

(assert (=> b!4530 m!6575))

(declare-fun m!6577 () Bool)

(assert (=> b!4530 m!6577))

(declare-fun m!6579 () Bool)

(assert (=> b!4535 m!6579))

(declare-fun m!6581 () Bool)

(assert (=> b!4538 m!6581))

(declare-fun m!6583 () Bool)

(assert (=> b!4534 m!6583))

(declare-fun m!6585 () Bool)

(assert (=> b!4536 m!6585))

(declare-fun m!6587 () Bool)

(assert (=> b!4533 m!6587))

(declare-fun m!6589 () Bool)

(assert (=> b!4533 m!6589))

(check-sat (not b!4530) (not start!973) (not b!4534) (not b!4535) (not b!4532) (not b!4539) (not b!4537))
(check-sat)
(get-model)

(declare-fun d!2455 () Bool)

(declare-fun res!3509 () Bool)

(declare-fun e!2273 () Bool)

(assert (=> d!2455 (=> (not res!3509) (not e!2273))))

(assert (=> d!2455 (= res!3509 (= (size!132 q!85) #b00000000000000000000000000010100))))

(assert (=> d!2455 (= (qInv!0 q!85) e!2273)))

(declare-fun b!4542 () Bool)

(declare-fun lambda!194 () Int)

(declare-fun all20!0 (array!302 Int) Bool)

(assert (=> b!4542 (= e!2273 (all20!0 q!85 lambda!194))))

(assert (= (and d!2455 res!3509) b!4542))

(declare-fun m!6591 () Bool)

(assert (=> b!4542 m!6591))

(assert (=> b!4534 d!2455))

(declare-fun lt!2909 () array!300)

(declare-fun b!4555 () Bool)

(declare-fun lt!2912 () (_ FloatingPoint 11 53))

(declare-fun e!2281 () tuple4!178)

(declare-fun lt!2908 () (_ BitVec 32))

(declare-fun Unit!363 () Unit!360)

(assert (=> b!4555 (= e!2281 (tuple4!179 Unit!363 lt!2909 lt!2908 lt!2912))))

(declare-fun b!4556 () Bool)

(declare-fun e!2280 () Bool)

(declare-fun lt!2910 () tuple4!178)

(assert (=> b!4556 (= e!2280 (bvsle (_3!132 lt!2910) #b00000000000000000000000000000000))))

(declare-fun b!4557 () Bool)

(declare-fun res!3519 () Bool)

(declare-fun e!2282 () Bool)

(assert (=> b!4557 (=> (not res!3519) (not e!2282))))

(assert (=> b!4557 (= res!3519 (iqInv!0 lt!2892))))

(declare-fun d!2457 () Bool)

(assert (=> d!2457 e!2280))

(declare-fun res!3518 () Bool)

(assert (=> d!2457 (=> (not res!3518) (not e!2280))))

(assert (=> d!2457 (= res!3518 (and true true (bvsle #b00000000000000000000000000000000 (_3!132 lt!2910)) (bvsle (_3!132 lt!2910) jz!53) (fp.leq (fp #b0 #b00000000000 #b0000000000000000000000000000000000000000000000000000) (_4!89 lt!2910)) (fp.leq (_4!89 lt!2910) (fp #b0 #b10000110001 #b0100000000000000000000010011111111111111111111111100))))))

(assert (=> d!2457 (= lt!2910 e!2281)))

(declare-fun c!725 () Bool)

(assert (=> d!2457 (= c!725 (bvsgt lt!2908 #b00000000000000000000000000000000))))

(assert (=> d!2457 (= lt!2908 (bvsub jz!53 #b00000000000000000000000000000001))))

(declare-fun lt!2911 () (_ FloatingPoint 11 53))

(assert (=> d!2457 (= lt!2912 (fp.add roundNearestTiesToEven (select (arr!132 q!85) (bvsub jz!53 #b00000000000000000000000000000001)) lt!2911))))

(assert (=> d!2457 (= lt!2909 (array!301 (store (arr!131 lt!2892) (bvsub jz!53 jz!53) (ite (fp.isNaN (fp.sub roundNearestTiesToEven lt!2896 (fp.mul roundNearestTiesToEven (fp #b0 #b10000010111 #b0000000000000000000000000000000000000000000000000000) lt!2911))) #b00000000000000000000000000000000 (ite (fp.gt (fp.sub roundNearestTiesToEven lt!2896 (fp.mul roundNearestTiesToEven (fp #b0 #b10000010111 #b0000000000000000000000000000000000000000000000000000) lt!2911)) ((_ to_fp 11 53) roundTowardZero #b01111111111111111111111111111111)) #b01111111111111111111111111111111 (ite (fp.lt (fp.sub roundNearestTiesToEven lt!2896 (fp.mul roundNearestTiesToEven (fp #b0 #b10000010111 #b0000000000000000000000000000000000000000000000000000) lt!2911)) ((_ to_fp 11 53) roundTowardZero #b10000000000000000000000000000000)) #b10000000000000000000000000000000 ((_ fp.to_sbv 32) roundTowardZero (fp.sub roundNearestTiesToEven lt!2896 (fp.mul roundNearestTiesToEven (fp #b0 #b10000010111 #b0000000000000000000000000000000000000000000000000000) lt!2911))))))) (size!131 lt!2892)))))

(assert (=> d!2457 (= lt!2911 ((_ to_fp 11 53) roundNearestTiesToEven (ite (fp.isNaN (fp.mul roundNearestTiesToEven (fp #b0 #b01111100111 #b0000000000000000000000000000000000000000000000000000) lt!2896)) #b00000000000000000000000000000000 (ite (fp.gt (fp.mul roundNearestTiesToEven (fp #b0 #b01111100111 #b0000000000000000000000000000000000000000000000000000) lt!2896) ((_ to_fp 11 53) roundTowardZero #b01111111111111111111111111111111)) #b01111111111111111111111111111111 (ite (fp.lt (fp.mul roundNearestTiesToEven (fp #b0 #b01111100111 #b0000000000000000000000000000000000000000000000000000) lt!2896) ((_ to_fp 11 53) roundTowardZero #b10000000000000000000000000000000)) #b10000000000000000000000000000000 ((_ fp.to_sbv 32) roundTowardZero (fp.mul roundNearestTiesToEven (fp #b0 #b01111100111 #b0000000000000000000000000000000000000000000000000000) lt!2896)))))))))

(assert (=> d!2457 e!2282))

(declare-fun res!3521 () Bool)

(assert (=> d!2457 (=> (not res!3521) (not e!2282))))

(assert (=> d!2457 (= res!3521 (and (bvsle #b00000000000000000000000000000000 jz!53) (bvsle jz!53 jz!53) (fp.leq (fp #b0 #b00000000000 #b0000000000000000000000000000000000000000000000000000) lt!2896) (fp.leq lt!2896 (fp #b0 #b10000110001 #b0100000000000000000000010011111111111111111111111100))))))

(assert (=> d!2457 (= (computeModuloWhile!0 jz!53 q!85 lt!2892 jz!53 lt!2896) lt!2910)))

(declare-fun b!4558 () Bool)

(assert (=> b!4558 (= e!2281 (computeModuloWhile!0 jz!53 q!85 lt!2909 lt!2908 lt!2912))))

(declare-fun b!4559 () Bool)

(declare-fun res!3520 () Bool)

(assert (=> b!4559 (=> (not res!3520) (not e!2280))))

(assert (=> b!4559 (= res!3520 (iqInv!0 (_2!144 lt!2910)))))

(declare-fun b!4560 () Bool)

(assert (=> b!4560 (= e!2282 (bvsgt jz!53 #b00000000000000000000000000000000))))

(assert (= (and d!2457 res!3521) b!4557))

(assert (= (and b!4557 res!3519) b!4560))

(assert (= (and d!2457 c!725) b!4558))

(assert (= (and d!2457 (not c!725)) b!4555))

(assert (= (and d!2457 res!3518) b!4559))

(assert (= (and b!4559 res!3520) b!4556))

(declare-fun m!6593 () Bool)

(assert (=> b!4557 m!6593))

(declare-fun m!6595 () Bool)

(assert (=> d!2457 m!6595))

(declare-fun m!6597 () Bool)

(assert (=> d!2457 m!6597))

(declare-fun m!6599 () Bool)

(assert (=> b!4558 m!6599))

(declare-fun m!6601 () Bool)

(assert (=> b!4559 m!6601))

(assert (=> b!4539 d!2457))

(declare-fun d!2459 () Bool)

(assert (=> d!2459 (= (array_inv!81 iq!165) (bvsge (size!131 iq!165) #b00000000000000000000000000000000))))

(assert (=> start!973 d!2459))

(declare-fun d!2461 () Bool)

(assert (=> d!2461 (= (array_inv!82 q!85) (bvsge (size!132 q!85) #b00000000000000000000000000000000))))

(assert (=> start!973 d!2461))

(declare-fun d!2463 () Bool)

(declare-fun e!2293 () Bool)

(assert (=> d!2463 e!2293))

(declare-fun res!3539 () Bool)

(assert (=> d!2463 (=> (not res!3539) (not e!2293))))

(declare-fun lt!2932 () tuple4!180)

(assert (=> d!2463 (= res!3539 (and (or (bvsgt #b00000000000000000000000000000000 (_2!145 lt!2932)) (= (bvand jz!53 #b10000000000000000000000000000000) #b00000000000000000000000000000000) (= (bvand jz!53 #b10000000000000000000000000000000) (bvand (bvsub jz!53 #b00000000000000000000000000000001) #b10000000000000000000000000000000))) (bvsle #b00000000000000000000000000000000 (_2!145 lt!2932)) (bvsle (_2!145 lt!2932) (bvsub jz!53 #b00000000000000000000000000000001))))))

(declare-fun e!2294 () tuple4!180)

(assert (=> d!2463 (= lt!2932 e!2294)))

(declare-fun c!731 () Bool)

(declare-fun lt!2937 () (_ BitVec 32))

(assert (=> d!2463 (= c!731 (bvslt lt!2937 (bvsub jz!53 #b00000000000000000000000000000001)))))

(assert (=> d!2463 (= lt!2937 (bvadd lt!2891 #b00000000000000000000000000000001))))

(declare-fun lt!2935 () (_ BitVec 32))

(declare-fun lt!2936 () (_ BitVec 32))

(assert (=> d!2463 (= lt!2935 (ite (and (= (ite (and (= carry!58 #b00000000000000000000000000000000) (not (= lt!2894 #b00000000000000000000000000000000))) #b00000000000000000000000000000001 carry!58) #b00000000000000000000000000000000) (not (= lt!2936 #b00000000000000000000000000000000))) #b00000000000000000000000000000001 (ite (and (= carry!58 #b00000000000000000000000000000000) (not (= lt!2894 #b00000000000000000000000000000000))) #b00000000000000000000000000000001 carry!58)))))

(declare-fun lt!2931 () array!300)

(assert (=> d!2463 (= lt!2931 (array!301 (store (arr!131 (array!301 (store (arr!131 iq!165) i!252 (ite (= carry!58 #b00000000000000000000000000000000) (ite (not (= lt!2894 #b00000000000000000000000000000000)) (bvsub #b00000001000000000000000000000000 lt!2894) #b00000000000000000000000000000000) (bvsub #b00000000111111111111111111111111 lt!2894))) (size!131 iq!165))) lt!2891 (ite (= (ite (and (= carry!58 #b00000000000000000000000000000000) (not (= lt!2894 #b00000000000000000000000000000000))) #b00000000000000000000000000000001 carry!58) #b00000000000000000000000000000000) (ite (not (= lt!2936 #b00000000000000000000000000000000)) (bvsub #b00000001000000000000000000000000 lt!2936) #b00000000000000000000000000000000) (bvsub #b00000000111111111111111111111111 lt!2936))) (size!131 (array!301 (store (arr!131 iq!165) i!252 (ite (= carry!58 #b00000000000000000000000000000000) (ite (not (= lt!2894 #b00000000000000000000000000000000)) (bvsub #b00000001000000000000000000000000 lt!2894) #b00000000000000000000000000000000) (bvsub #b00000000111111111111111111111111 lt!2894))) (size!131 iq!165)))))))

(assert (=> d!2463 (= lt!2936 (select (arr!131 (array!301 (store (arr!131 iq!165) i!252 (ite (= carry!58 #b00000000000000000000000000000000) (ite (not (= lt!2894 #b00000000000000000000000000000000)) (bvsub #b00000001000000000000000000000000 lt!2894) #b00000000000000000000000000000000) (bvsub #b00000000111111111111111111111111 lt!2894))) (size!131 iq!165))) lt!2891))))

(declare-fun e!2291 () Bool)

(assert (=> d!2463 e!2291))

(declare-fun res!3538 () Bool)

(assert (=> d!2463 (=> (not res!3538) (not e!2291))))

(assert (=> d!2463 (= res!3538 (and (bvsle #b00000000000000000000000000000000 lt!2891) (bvsle lt!2891 (bvsub jz!53 #b00000000000000000000000000000001))))))

(declare-fun lt!2939 () tuple4!178)

(declare-fun e!2292 () tuple4!178)

(assert (=> d!2463 (= lt!2939 e!2292)))

(declare-fun c!730 () Bool)

(assert (=> d!2463 (= c!730 (bvsgt jz!53 #b00000000000000000000000000000000))))

(declare-fun lt!2934 () (_ FloatingPoint 11 53))

(assert (=> d!2463 (= lt!2934 (select (arr!132 q!85) jz!53))))

(declare-fun lt!2933 () array!300)

(assert (=> d!2463 (= lt!2933 (array!301 ((as const (Array (_ BitVec 32) (_ BitVec 32))) #b00000000000000000000000000000000) #b00000000000000000000000000010100))))

(assert (=> d!2463 (= (computeModuloWhile!1 jz!53 q!85 lt!2891 (array!301 (store (arr!131 iq!165) i!252 (ite (= carry!58 #b00000000000000000000000000000000) (ite (not (= lt!2894 #b00000000000000000000000000000000)) (bvsub #b00000001000000000000000000000000 lt!2894) #b00000000000000000000000000000000) (bvsub #b00000000111111111111111111111111 lt!2894))) (size!131 iq!165)) (ite (and (= carry!58 #b00000000000000000000000000000000) (not (= lt!2894 #b00000000000000000000000000000000))) #b00000000000000000000000000000001 carry!58)) lt!2932)))

(declare-fun b!4581 () Bool)

(declare-fun Unit!364 () Unit!360)

(assert (=> b!4581 (= e!2294 (tuple4!181 Unit!364 lt!2937 lt!2931 lt!2935))))

(declare-fun b!4582 () Bool)

(declare-fun res!3535 () Bool)

(assert (=> b!4582 (=> (not res!3535) (not e!2293))))

(assert (=> b!4582 (= res!3535 (or (= (_4!90 lt!2932) #b00000000000000000000000000000000) (= (_4!90 lt!2932) #b00000000000000000000000000000001)))))

(declare-fun b!4583 () Bool)

(declare-fun res!3536 () Bool)

(assert (=> b!4583 (=> (not res!3536) (not e!2293))))

(declare-fun lt!2938 () (_ BitVec 32))

(assert (=> b!4583 (= res!3536 (bvsge (select (arr!131 (_3!133 lt!2932)) lt!2938) #b00000000100000000000000000000000))))

(assert (=> b!4583 (and (bvsge lt!2938 #b00000000000000000000000000000000) (bvslt lt!2938 (size!131 (_3!133 lt!2932))))))

(assert (=> b!4583 (= lt!2938 (bvsub jz!53 #b00000000000000000000000000000001))))

(assert (=> b!4583 (or (= (bvand jz!53 #b10000000000000000000000000000000) #b00000000000000000000000000000000) (= (bvand jz!53 #b10000000000000000000000000000000) (bvand (bvsub jz!53 #b00000000000000000000000000000001) #b10000000000000000000000000000000)))))

(declare-fun b!4584 () Bool)

(declare-fun res!3534 () Bool)

(assert (=> b!4584 (=> (not res!3534) (not e!2293))))

(assert (=> b!4584 (= res!3534 (iqInv!0 (_3!133 lt!2932)))))

(declare-fun b!4585 () Bool)

(assert (=> b!4585 (= e!2291 (and (bvsge (select (arr!131 (array!301 (store (arr!131 iq!165) i!252 (ite (= carry!58 #b00000000000000000000000000000000) (ite (not (= lt!2894 #b00000000000000000000000000000000)) (bvsub #b00000001000000000000000000000000 lt!2894) #b00000000000000000000000000000000) (bvsub #b00000000111111111111111111111111 lt!2894))) (size!131 iq!165))) (bvsub jz!53 #b00000000000000000000000000000001)) #b00000000100000000000000000000000) (or (= (ite (and (= carry!58 #b00000000000000000000000000000000) (not (= lt!2894 #b00000000000000000000000000000000))) #b00000000000000000000000000000001 carry!58) #b00000000000000000000000000000000) (= (ite (and (= carry!58 #b00000000000000000000000000000000) (not (= lt!2894 #b00000000000000000000000000000000))) #b00000000000000000000000000000001 carry!58) #b00000000000000000000000000000001)) (bvslt lt!2891 (bvsub jz!53 #b00000000000000000000000000000001))))))

(declare-fun b!4586 () Bool)

(assert (=> b!4586 (= e!2294 (computeModuloWhile!1 jz!53 q!85 lt!2937 lt!2931 lt!2935))))

(declare-fun b!4587 () Bool)

(assert (=> b!4587 (= e!2293 (bvsge (_2!145 lt!2932) (bvsub jz!53 #b00000000000000000000000000000001)))))

(assert (=> b!4587 (or (= (bvand jz!53 #b10000000000000000000000000000000) #b00000000000000000000000000000000) (= (bvand jz!53 #b10000000000000000000000000000000) (bvand (bvsub jz!53 #b00000000000000000000000000000001) #b10000000000000000000000000000000)))))

(declare-fun b!4588 () Bool)

(declare-fun Unit!365 () Unit!360)

(assert (=> b!4588 (= e!2292 (tuple4!179 Unit!365 lt!2933 jz!53 lt!2934))))

(declare-fun b!4589 () Bool)

(declare-fun res!3537 () Bool)

(assert (=> b!4589 (=> (not res!3537) (not e!2291))))

(assert (=> b!4589 (= res!3537 (iqInv!0 (array!301 (store (arr!131 iq!165) i!252 (ite (= carry!58 #b00000000000000000000000000000000) (ite (not (= lt!2894 #b00000000000000000000000000000000)) (bvsub #b00000001000000000000000000000000 lt!2894) #b00000000000000000000000000000000) (bvsub #b00000000111111111111111111111111 lt!2894))) (size!131 iq!165))))))

(declare-fun b!4590 () Bool)

(assert (=> b!4590 (= e!2292 (computeModuloWhile!0 jz!53 q!85 lt!2933 jz!53 lt!2934))))

(assert (= (and d!2463 c!730) b!4590))

(assert (= (and d!2463 (not c!730)) b!4588))

(assert (= (and d!2463 res!3538) b!4589))

(assert (= (and b!4589 res!3537) b!4585))

(assert (= (and d!2463 c!731) b!4586))

(assert (= (and d!2463 (not c!731)) b!4581))

(assert (= (and d!2463 res!3539) b!4584))

(assert (= (and b!4584 res!3534) b!4583))

(assert (= (and b!4583 res!3536) b!4582))

(assert (= (and b!4582 res!3535) b!4587))

(declare-fun m!6603 () Bool)

(assert (=> b!4586 m!6603))

(declare-fun m!6605 () Bool)

(assert (=> b!4583 m!6605))

(declare-fun m!6607 () Bool)

(assert (=> b!4585 m!6607))

(declare-fun m!6609 () Bool)

(assert (=> b!4589 m!6609))

(declare-fun m!6611 () Bool)

(assert (=> b!4584 m!6611))

(declare-fun m!6613 () Bool)

(assert (=> d!2463 m!6613))

(declare-fun m!6615 () Bool)

(assert (=> d!2463 m!6615))

(assert (=> d!2463 m!6589))

(declare-fun m!6617 () Bool)

(assert (=> b!4590 m!6617))

(assert (=> b!4532 d!2463))

(declare-fun d!2465 () Bool)

(declare-fun res!3542 () Bool)

(declare-fun e!2297 () Bool)

(assert (=> d!2465 (=> (not res!3542) (not e!2297))))

(assert (=> d!2465 (= res!3542 (= (size!131 iq!165) #b00000000000000000000000000010100))))

(assert (=> d!2465 (= (iqInv!0 iq!165) e!2297)))

(declare-fun b!4593 () Bool)

(declare-fun lambda!197 () Int)

(declare-fun all20Int!0 (array!300 Int) Bool)

(assert (=> b!4593 (= e!2297 (all20Int!0 iq!165 lambda!197))))

(assert (= (and d!2465 res!3542) b!4593))

(declare-fun m!6619 () Bool)

(assert (=> b!4593 m!6619))

(assert (=> b!4537 d!2465))

(declare-fun d!2467 () Bool)

(assert (=> d!2467 (= (QInt!0 lt!2894) (and (bvsle #b00000000000000000000000000000000 lt!2894) (bvsle lt!2894 #b00000000111111111111111111111111)))))

(assert (=> b!4530 d!2467))

(declare-fun bs!1145 () Bool)

(declare-fun b!4594 () Bool)

(assert (= bs!1145 (and b!4594 b!4593)))

(declare-fun lambda!198 () Int)

(assert (=> bs!1145 (= lambda!198 lambda!197)))

(declare-fun d!2469 () Bool)

(declare-fun res!3543 () Bool)

(declare-fun e!2298 () Bool)

(assert (=> d!2469 (=> (not res!3543) (not e!2298))))

(assert (=> d!2469 (= res!3543 (= (size!131 (_3!133 lt!2897)) #b00000000000000000000000000010100))))

(assert (=> d!2469 (= (iqInv!0 (_3!133 lt!2897)) e!2298)))

(assert (=> b!4594 (= e!2298 (all20Int!0 (_3!133 lt!2897) lambda!198))))

(assert (= (and d!2469 res!3543) b!4594))

(declare-fun m!6621 () Bool)

(assert (=> b!4594 m!6621))

(assert (=> b!4535 d!2469))

(check-sat (not b!4590) (not b!4559) (not b!4557) (not b!4593) (not b!4584) (not b!4542) (not b!4558) (not b!4589) (not b!4586) (not b!4594))
(check-sat)
